num_offers = 40;
num_halls = 10;
start=[75,50,18,46,14,8,15,51,55,42,20,63,38,59,29,22,49,12,17,11,84,20,58,84,14,4,19,8,78,23,39,87,69,24,18,85,43,42,25,73];
end=[83,79,77,58,72,36,68,62,83,90,49,83,77,79,30,69,77,89,23,88,100,86,89,99,88,66,87,95,91,100,67,99,73,93,34,90,85,100,36,76];
price=[886,393,4078,904,1327,773,1991,588,1073,4503,2335,543,3987,458,172,3255,358,5371,689,848,382,5620,2959,305,2783,3120,3648,4091,1287,1137,1396,780,466,3550,1650,435,985,4241,763,366];
requirement=[566,815,200,922,342,569,548,666,962,474,392,225,432,881,531,382,914,376,855,374,242,214,375,468,215,714,821,675,685,315,814,770,440,722,817,881,603,372,544,409];
capacity=[225,833,978,773,372,809,424,849,205,428];
